p cnf 13 29
-13 12 -9 0
-13 12 2 0
-13 8 4 0
13 -6 1 0
-13 4 1 0
12 -11 3 0
12 10 7 0
-12 -8 1 0
12 -7 -4 0
11 -8 -6 0
-11 8 -5 0
11 -8 5 0
-11 5 -3 0
-11 -4 1 0
10 -9 6 0
10 -9 3 0
10 -8 -5 0
-10 8 -1 0
10 -7 -1 0
10 -5 3 0
-9 -8 -2 0
9 5 -3 0
9 3 -1 0
9 -3 -1 0
-8 7 -4 0
8 2 1 0
-7 4 1 0
6 5 4 0
6 -5 -4 0
